100
32
7
5
3
4
15
19
30
32
1
22
15
16
29
6
10
8
9
10
3
8
17
1
21
4
18
6
2
4
4
17
2
2
1
1
8
4
1
2
18
5
8
1
2
3
2
1
1
19
1
4
1
1
2
3
4
17
5
19
17
3
7
7
3
2
3
3
3
2
1
1
1
18
18
8
1
18
2
2
1
1
1
1
5
1
7
18
3
1
1
4
1
2
1
1
4
2
2
1
1
1